words_hard_train/4212.qaiger
aag 128 16 0 1 112
2
4
8
12
16
20
24
28
32
48
52
70
90
110
130
150
256
6 3 5
10 6 9
14 10 13
18 14 17
22 18 21
26 22 25
30 27 28
34 31 32
36 30 33
38 35 37
40 29 2
42 41 5
44 40 4
46 43 45
50 48 2
54 50 52
56 47 55
58 51 53
60 57 59
62 7 29
64 63 9
66 62 8
68 65 67
72 69 71
74 68 70
76 73 75
78 60 76
80 79 75
82 11 29
84 83 13
86 82 12
88 85 87
92 89 91
94 88 90
96 93 95
98 81 96
100 99 95
102 15 29
104 103 17
106 102 16
108 105 107
112 109 111
114 108 110
116 113 115
118 101 116
120 119 115
122 19 29
124 123 21
126 122 20
128 125 127
132 129 131
134 128 130
136 133 135
138 121 136
140 139 135
142 23 29
144 143 25
146 142 24
148 145 147
152 149 151
154 148 150
156 153 155
158 141 156
160 159 155
162 39 161
164 38 160
166 163 165
168 23 24
170 169 27
172 140 157
174 173 159
176 171 175
178 170 174
180 177 179
182 166 180
184 19 20
186 185 23
188 120 137
190 189 139
192 187 191
194 186 190
196 193 195
198 11 12
200 199 15
202 80 97
204 203 99
206 201 205
208 200 204
210 207 209
212 15 16
214 213 19
216 100 117
218 217 119
220 214 218
222 210 221
224 7 8
226 225 11
228 61 77
230 229 79
232 227 230
234 226 231
236 233 235
238 41 53
240 40 52
242 239 241
244 242 48
246 237 244
248 215 219
250 246 249
252 222 250
254 196 252
256 182 254
i0 1 x1[0]
i1 1 x1[1]
i2 1 x1[2]
i3 1 x1[3]
i4 1 x1[4]
i5 1 x1[5]
i6 1 x1[6]
i7 1 x1[7]
i8 2 y2[7]
i9 2 y2[0]
i10 2 y2[1]
i11 2 y2[2]
i12 2 y2[3]
i13 2 y2[4]
i14 2 y2[5]
i15 2 y2[6]
o0 bool[0]
c
simplified
  ==
    subtract
      1 x1
      1
    subtract
      2 y2
      abs
        1 x1
