words_hard_train/4212.qaiger.qdimacs
p cnf 128 337
a 1 2 4 6 8 10 12 14 0
e 3 5 7 9 11 13 15 16 17 18 19 20 21 22 23 24 25 26 27 28 29 30 31 32 33 34 35 36 37 38 39 40 41 42 43 44 45 46 47 48 49 50 51 52 53 54 55 56 57 58 59 60 61 62 63 64 65 66 67 68 69 70 71 72 73 74 75 76 77 78 79 80 81 82 83 84 85 86 87 88 89 90 91 92 93 94 95 96 97 98 99 100 101 102 103 104 105 106 107 108 109 110 111 112 113 114 115 116 117 118 119 120 121 122 123 124 125 126 127 128 0
1 2 3 0
-1 -3 0
-2 -3 0
-3 4 5 0
3 -5 0
-4 -5 0
-5 6 7 0
5 -7 0
-6 -7 0
-7 8 9 0
7 -9 0
-8 -9 0
-9 10 11 0
9 -11 0
-10 -11 0
-11 12 13 0
11 -13 0
-12 -13 0
13 -14 15 0
-13 -15 0
14 -15 0
15 -16 17 0
-15 -17 0
16 -17 0
-15 16 18 0
15 -18 0
-16 -18 0
17 18 19 0
-17 -19 0
-18 -19 0
14 -1 20 0
-14 -20 0
1 -20 0
20 2 21 0
-20 -21 0
-2 -21 0
-20 -2 22 0
20 -22 0
2 -22 0
21 22 23 0
-21 -23 0
-22 -23 0
-24 -1 25 0
24 -25 0
1 -25 0
-25 -26 27 0
25 -27 0
26 -27 0
23 27 28 0
-23 -28 0
-27 -28 0
25 26 29 0
-25 -29 0
-26 -29 0
28 29 30 0
-28 -30 0
-29 -30 0
3 14 31 0
-3 -31 0
-14 -31 0
31 4 32 0
-31 -32 0
-4 -32 0
-31 -4 33 0
31 -33 0
4 -33 0
32 33 34 0
-32 -34 0
-33 -34 0
34 35 36 0
-34 -36 0
-35 -36 0
-34 -35 37 0
34 -37 0
35 -37 0
36 37 38 0
-36 -38 0
-37 -38 0
-30 -38 39 0
30 -39 0
38 -39 0
39 37 40 0
-39 -40 0
-37 -40 0
5 14 41 0
-5 -41 0
-14 -41 0
41 6 42 0
-41 -42 0
-6 -42 0
-41 -6 43 0
41 -43 0
6 -43 0
42 43 44 0
-42 -44 0
-43 -44 0
44 45 46 0
-44 -46 0
-45 -46 0
-44 -45 47 0
44 -47 0
45 -47 0
46 47 48 0
-46 -48 0
-47 -48 0
40 -48 49 0
-40 -49 0
48 -49 0
49 47 50 0
-49 -50 0
-47 -50 0
7 14 51 0
-7 -51 0
-14 -51 0
51 8 52 0
-51 -52 0
-8 -52 0
-51 -8 53 0
51 -53 0
8 -53 0
52 53 54 0
-52 -54 0
-53 -54 0
54 55 56 0
-54 -56 0
-55 -56 0
-54 -55 57 0
54 -57 0
55 -57 0
56 57 58 0
-56 -58 0
-57 -58 0
50 -58 59 0
-50 -59 0
58 -59 0
59 57 60 0
-59 -60 0
-57 -60 0
9 14 61 0
-9 -61 0
-14 -61 0
61 10 62 0
-61 -62 0
-10 -62 0
-61 -10 63 0
61 -63 0
10 -63 0
62 63 64 0
-62 -64 0
-63 -64 0
64 65 66 0
-64 -66 0
-65 -66 0
-64 -65 67 0
64 -67 0
65 -67 0
66 67 68 0
-66 -68 0
-67 -68 0
60 -68 69 0
-60 -69 0
68 -69 0
69 67 70 0
-69 -70 0
-67 -70 0
11 14 71 0
-11 -71 0
-14 -71 0
71 12 72 0
-71 -72 0
-12 -72 0
-71 -12 73 0
71 -73 0
12 -73 0
72 73 74 0
-72 -74 0
-73 -74 0
74 75 76 0
-74 -76 0
-75 -76 0
-74 -75 77 0
74 -77 0
75 -77 0
76 77 78 0
-76 -78 0
-77 -78 0
70 -78 79 0
-70 -79 0
78 -79 0
79 77 80 0
-79 -80 0
-77 -80 0
19 80 81 0
-19 -81 0
-80 -81 0
-19 -80 82 0
19 -82 0
80 -82 0
81 82 83 0
-81 -83 0
-82 -83 0
11 -12 84 0
-11 -84 0
12 -84 0
84 13 85 0
-84 -85 0
-13 -85 0
-70 78 86 0
70 -86 0
-78 -86 0
86 79 87 0
-86 -87 0
-79 -87 0
85 87 88 0
-85 -88 0
-87 -88 0
-85 -87 89 0
85 -89 0
87 -89 0
88 89 90 0
-88 -90 0
-89 -90 0
-83 -90 91 0
83 -91 0
90 -91 0
9 -10 92 0
-9 -92 0
10 -92 0
92 11 93 0
-92 -93 0
-11 -93 0
-60 68 94 0
60 -94 0
-68 -94 0
94 69 95 0
-94 -95 0
-69 -95 0
93 95 96 0
-93 -96 0
-95 -96 0
-93 -95 97 0
93 -97 0
95 -97 0
96 97 98 0
-96 -98 0
-97 -98 0
5 -6 99 0
-5 -99 0
6 -99 0
99 7 100 0
-99 -100 0
-7 -100 0
-40 48 101 0
40 -101 0
-48 -101 0
101 49 102 0
-101 -102 0
-49 -102 0
100 102 103 0
-100 -103 0
-102 -103 0
-100 -102 104 0
100 -104 0
102 -104 0
103 104 105 0
-103 -105 0
-104 -105 0
7 -8 106 0
-7 -106 0
8 -106 0
106 9 107 0
-106 -107 0
-9 -107 0
-50 58 108 0
50 -108 0
-58 -108 0
108 59 109 0
-108 -109 0
-59 -109 0
-107 -109 110 0
107 -110 0
109 -110 0
-105 110 111 0
105 -111 0
-110 -111 0
3 -4 112 0
-3 -112 0
4 -112 0
112 5 113 0
-112 -113 0
-5 -113 0
30 38 114 0
-30 -114 0
-38 -114 0
114 39 115 0
-114 -115 0
-39 -115 0
113 -115 116 0
-113 -116 0
115 -116 0
-113 115 117 0
113 -117 0
-115 -117 0
116 117 118 0
-116 -118 0
-117 -118 0
20 26 119 0
-20 -119 0
-26 -119 0
-20 -26 120 0
20 -120 0
26 -120 0
119 120 121 0
-119 -121 0
-120 -121 0
-121 -24 122 0
121 -122 0
24 -122 0
118 -122 123 0
-118 -123 0
122 -123 0
107 109 124 0
-107 -124 0
-109 -124 0
-123 124 125 0
123 -125 0
-124 -125 0
-111 -125 126 0
111 -126 0
125 -126 0
-98 -126 127 0
98 -127 0
126 -127 0
-91 -127 128 0
91 -128 0
127 -128 0
128 0
